100 8
765 863
306 834
159 311
780 860
662 572
630 386
208 493
439 499
310 991
929 626
720 503
60 102
611 327
462 204
256 829
820 616
632 715
504 469
78 71
230 571
173 132
388 308
287 806
909 525
575 492
299 284
610 851
534 420
538 280
150 254
767 818
907 684
292 319
581 399
524 505
387 225
143 214
803 946
620 277
230 710
337 304
176 841
54 510
517 438
124 436
763 642
805 957
800 943
708 840
341 182
546 392
258 357
274 817
725 554
539 827
164 912
739 822
202 807
764 669
167 641
77 51
798 855
307 841
444 506
635 755
207 487
693 523
535 722
729 860
843 813
131 404
77 145
177 398
337 244
512 541
670 850
139 238
919 522
542 433
796 650
807 526
712 775
428 262
464 337
726 635
532 415
319 824
607 756
911 671
798 661
566 331
288 287
240 205
214 670
246 294
516 696
282 770
340 273
601 254
479 460
